NAME: generated_7_asym_1_100_UniformDistrib_noSparse.tsp
TYPE: TSP
COMMENT: Test case generated with custom generator!
DIMENSION: 7
EDGE_WEIGHT_TYPE: EXPLICIT
EDGE_WEIGHT_FORMAT: FULL_MATRIX
DISPLAY_DATA_TYPE: TWOD_DISPLAY
EDGE_WEIGHT_SECTION
0 72 44 45 43 88 28 
98 0 96 2 29 48 68 
40 52 0 1 81 30 41 
74 6 90 0 61 47 38 
98 26 73 96 0 75 75 
93 44 49 75 68 0 57 
86 100 28 62 18 76 0 
